NAME: tsp30_28
COMMENT: 30-tsp problem (Padberg/Rinaldi)
TYPE: TSP
DIMENSION: 30
EDGE_WEIGHT_TYPE : EUC_2D
NODE_COORD_SECTION
1 26 30
2 10 21
3 35 40
4 8 14
5 16 39
6 27 15
7 4 32
8 27 25
9 36 35
10 37 23
11 18 33
12 12 4
13 5 37
14 30 34
15 39 24
16 33 11
17 37 29
18 37 3
19 34 6
20 35 4
21 11 32
22 18 34
23 29 33
24 7 29
25 5 33
26 36 1
27 7 33
28 8 31
29 35 18
30 30 15
